c colouring generated by benchmark framework
p edge 1225 2380
v 1 2
v 2 1
v 3 0
v 4 2
v 5 1
v 6 0
v 7 1
v 8 0
v 9 1
v 10 2
v 11 1
v 12 3
v 13 0
v 14 1
v 15 0
v 16 3
v 17 0
v 18 1
v 19 3
v 20 0
v 21 2
v 22 0
v 23 2
v 24 0
v 25 1
v 26 2
v 27 1
v 28 0
v 29 1
v 30 0
v 31 1
v 32 0
v 33 1
v 34 2
v 35 3
v 36 1
v 37 0
v 38 2
v 39 1
v 40 0
v 41 2
v 42 0
v 43 1
v 44 2
v 45 0
v 46 3
v 47 0
v 48 3
v 49 0
v 50 1
v 51 0
v 52 1
v 53 2
v 54 0
v 55 3
v 56 0
v 57 1
v 58 0
v 59 1
v 60 2
v 61 3
v 62 0
v 63 1
v 64 2
v 65 1
v 66 0
v 67 2
v 68 0
v 69 3
v 70 1
v 71 0
v 72 1
v 73 0
v 74 2
v 75 1
v 76 3
v 77 2
v 78 0
v 79 3
v 80 2
v 81 0
v 82 2
v 83 0
v 84 2
v 85 0
v 86 1
v 87 2
v 88 1
v 89 3
v 90 2
v 91 3
v 92 0
v 93 2
v 94 0
v 95 1
v 96 0
v 97 1
v 98 0
v 99 1
v 100 0
v 101 1
v 102 0
v 103 3
v 104 1
v 105 0
v 106 1
v 107 0
v 108 2
v 109 3
v 110 2
v 111 0
v 112 3
v 113 1
v 114 2
v 115 0
v 116 3
v 117 0
v 118 1
v 119 3
v 120 1
v 121 0
v 122 1
v 123 0
v 124 1
v 125 3
v 126 0
v 127 3
v 128 0
v 129 1
v 130 2
v 131 3
v 132 0
v 133 1
v 134 0
v 135 1
v 136 0
v 137 1
v 138 2
v 139 0
v 140 1
v 141 3
v 142 2
v 143 1
v 144 2
v 145 0
v 146 2
v 147 0
v 148 2
v 149 1
v 150 3
v 151 0
v 152 1
v 153 3
v 154 0
v 155 3
v 156 1
v 157 3
v 158 1
v 159 2
v 160 0
v 161 3
v 162 0
v 163 1
v 164 3
v 165 0
v 166 1
v 167 3
v 168 0
v 169 1
v 170 0
v 171 1
v 172 0
v 173 1
v 174 2
v 175 0
v 176 2
v 177 3
v 178 0
v 179 3
v 180 1
v 181 0
v 182 3
v 183 0
v 184 3
v 185 0
v 186 2
v 187 3
v 188 0
v 189 3
v 190 2
v 191 0
v 192 1
v 193 2
v 194 0
v 195 2
v 196 0
v 197 1
v 198 0
v 199 1
v 200 2
v 201 3
v 202 0
v 203 3
v 204 2
v 205 1
v 206 0
v 207 3
v 208 2
v 209 0
v 210 3
v 211 0
v 212 1
v 213 2
v 214 0
v 215 2
v 216 3
v 217 0
v 218 1
v 219 0
v 220 2
v 221 3
v 222 0
v 223 2
v 224 1
v 225 0
v 226 1
v 227 2
v 228 1
v 229 2
v 230 1
v 231 3
v 232 0
v 233 2
v 234 3
v 235 0
v 236 1
v 237 3
v 238 2
v 239 1
v 240 0
v 241 3
v 242 1
v 243 0
v 244 3
v 245 1
v 246 1
v 247 2
v 248 0
v 249 1
v 250 3
v 251 2
v 252 1
v 253 2
v 254 3
v 255 1
v 256 0
v 257 1
v 258 3
v 259 0
v 260 1
v 261 0
v 262 1
v 263 0
v 264 3
v 265 0
v 266 1
v 267 2
v 268 1
v 269 0
v 270 1
v 271 3
v 272 2
v 273 0
v 274 2
v 275 3
v 276 1
v 277 0
v 278 3
v 279 0
v 280 3
v 281 2
v 282 0
v 283 1
v 284 3
v 285 2
v 286 0
v 287 3
v 288 0
v 289 1
v 290 0
v 291 1
v 292 2
v 293 0
v 294 1
v 295 2
v 296 3
v 297 0
v 298 2
v 299 1
v 300 2
v 301 3
v 302 0
v 303 2
v 304 1
v 305 0
v 306 1
v 307 0
v 308 3
v 309 0
v 310 1
v 311 0
v 312 1
v 313 0
v 314 1
v 315 2
v 316 0
v 317 1
v 318 2
v 319 0
v 320 3
v 321 2
v 322 1
v 323 2
v 324 3
v 325 2
v 326 3
v 327 0
v 328 1
v 329 0
v 330 1
v 331 2
v 332 1
v 333 0
v 334 2
v 335 0
v 336 2
v 337 1
v 338 0
v 339 2
v 340 3
v 341 2
v 342 1
v 343 0
v 344 3
v 345 0
v 346 2
v 347 3
v 348 2
v 349 3
v 350 0
v 351 3
v 352 2
v 353 0
v 354 2
v 355 0
v 356 1
v 357 0
v 358 1
v 359 0
v 360 1
v 361 0
v 362 1
v 363 3
v 364 1
v 365 0
v 366 1
v 367 0
v 368 3
v 369 1
v 370 3
v 371 1
v 372 0
v 373 2
v 374 0
v 375 2
v 376 1
v 377 0
v 378 1
v 379 0
v 380 1
v 381 3
v 382 0
v 383 3
v 384 0
v 385 2
v 386 1
v 387 0
v 388 1
v 389 0
v 390 2
v 391 0
v 392 1
v 393 0
v 394 3
v 395 2
v 396 1
v 397 2
v 398 1
v 399 0
v 400 2
v 401 0
v 402 2
v 403 1
v 404 0
v 405 2
v 406 0
v 407 3
v 408 1
v 409 3
v 410 1
v 411 0
v 412 3
v 413 2
v 414 1
v 415 3
v 416 0
v 417 2
v 418 1
v 419 2
v 420 0
v 421 0
v 422 2
v 423 3
v 424 1
v 425 0
v 426 3
v 427 0
v 428 3
v 429 2
v 430 0
v 431 3
v 432 1
v 433 0
v 434 2
v 435 3
v 436 1
v 437 3
v 438 2
v 439 3
v 440 0
v 441 2
v 442 1
v 443 0
v 444 2
v 445 0
v 446 1
v 447 0
v 448 3
v 449 0
v 450 2
v 451 1
v 452 0
v 453 2
v 454 1
v 455 3
v 456 2
v 457 1
v 458 0
v 459 2
v 460 1
v 461 0
v 462 1
v 463 0
v 464 3
v 465 1
v 466 0
v 467 3
v 468 1
v 469 3
v 470 0
v 471 3
v 472 0
v 473 3
v 474 0
v 475 2
v 476 0
v 477 2
v 478 1
v 479 0
v 480 2
v 481 0
v 482 3
v 483 0
v 484 3
v 485 1
v 486 3
v 487 2
v 488 1
v 489 0
v 490 1
v 491 0
v 492 3
v 493 2
v 494 0
v 495 3
v 496 1
v 497 2
v 498 1
v 499 0
v 500 2
v 501 3
v 502 0
v 503 2
v 504 1
v 505 2
v 506 0
v 507 1
v 508 0
v 509 3
v 510 0
v 511 1
v 512 0
v 513 3
v 514 1
v 515 3
v 516 2
v 517 1
v 518 2
v 519 0
v 520 2
v 521 1
v 522 0
v 523 2
v 524 3
v 525 2
v 526 1
v 527 0
v 528 1
v 529 3
v 530 1
v 531 0
v 532 1
v 533 3
v 534 2
v 535 3
v 536 1
v 537 2
v 538 1
v 539 3
v 540 0
v 541 1
v 542 0
v 543 3
v 544 0
v 545 2
v 546 0
v 547 2
v 548 0
v 549 3
v 550 0
v 551 1
v 552 0
v 553 1
v 554 2
v 555 1
v 556 0
v 557 2
v 558 3
v 559 1
v 560 0
v 561 3
v 562 2
v 563 0
v 564 1
v 565 0
v 566 3
v 567 0
v 568 2
v 569 3
v 570 0
v 571 2
v 572 1
v 573 2
v 574 0
v 575 3
v 576 0
v 577 3
v 578 1
v 579 3
v 580 1
v 581 3
v 582 1
v 583 2
v 584 0
v 585 1
v 586 2
v 587 1
v 588 0
v 589 3
v 590 0
v 591 3
v 592 1
v 593 2
v 594 0
v 595 3
v 596 1
v 597 0
v 598 3
v 599 2
v 600 3
v 601 1
v 602 2
v 603 0
v 604 1
v 605 2
v 606 0
v 607 2
v 608 3
v 609 2
v 610 0
v 611 2
v 612 0
v 613 2
v 614 0
v 615 3
v 616 2
v 617 0
v 618 3
v 619 2
v 620 0
v 621 3
v 622 0
v 623 1
v 624 0
v 625 3
v 626 1
v 627 0
v 628 1
v 629 2
v 630 0
v 631 0
v 632 2
v 633 1
v 634 0
v 635 1
v 636 3
v 637 0
v 638 2
v 639 3
v 640 0
v 641 1
v 642 3
v 643 1
v 644 0
v 645 3
v 646 0
v 647 3
v 648 0
v 649 1
v 650 0
v 651 1
v 652 2
v 653 1
v 654 0
v 655 2
v 656 1
v 657 3
v 658 2
v 659 3
v 660 0
v 661 2
v 662 3
v 663 2
v 664 1
v 665 2
v 666 2
v 667 3
v 668 0
v 669 1
v 670 3
v 671 2
v 672 1
v 673 0
v 674 2
v 675 3
v 676 2
v 677 1
v 678 0
v 679 3
v 680 2
v 681 1
v 682 0
v 683 1
v 684 2
v 685 1
v 686 0
v 687 1
v 688 0
v 689 1
v 690 3
v 691 0
v 692 2
v 693 0
v 694 2
v 695 1
v 696 0
v 697 2
v 698 1
v 699 0
v 700 3
v 701 0
v 702 2
v 703 1
v 704 3
v 705 0
v 706 3
v 707 0
v 708 1
v 709 0
v 710 1
v 711 3
v 712 2
v 713 3
v 714 0
v 715 1
v 716 2
v 717 1
v 718 0
v 719 1
v 720 2
v 721 3
v 722 0
v 723 1
v 724 2
v 725 0
v 726 2
v 727 1
v 728 3
v 729 1
v 730 3
v 731 1
v 732 0
v 733 2
v 734 1
v 735 2
v 736 3
v 737 1
v 738 0
v 739 1
v 740 2
v 741 0
v 742 3
v 743 0
v 744 3
v 745 2
v 746 1
v 747 0
v 748 2
v 749 3
v 750 0
v 751 3
v 752 2
v 753 1
v 754 0
v 755 3
v 756 0
v 757 1
v 758 2
v 759 0
v 760 3
v 761 0
v 762 3
v 763 1
v 764 0
v 765 2
v 766 0
v 767 2
v 768 1
v 769 3
v 770 1
v 771 1
v 772 0
v 773 2
v 774 0
v 775 1
v 776 2
v 777 0
v 778 3
v 779 1
v 780 0
v 781 2
v 782 1
v 783 0
v 784 2
v 785 1
v 786 2
v 787 3
v 788 0
v 789 1
v 790 2
v 791 1
v 792 0
v 793 1
v 794 2
v 795 1
v 796 2
v 797 1
v 798 0
v 799 1
v 800 0
v 801 1
v 802 0
v 803 3
v 804 2
v 805 0
v 806 0
v 807 2
v 808 3
v 809 1
v 810 2
v 811 0
v 812 3
v 813 2
v 814 0
v 815 1
v 816 3
v 817 2
v 818 1
v 819 0
v 820 3
v 821 0
v 822 2
v 823 3
v 824 2
v 825 0
v 826 2
v 827 3
v 828 0
v 829 1
v 830 0
v 831 1
v 832 0
v 833 1
v 834 2
v 835 3
v 836 0
v 837 2
v 838 0
v 839 3
v 840 1
v 841 2
v 842 1
v 843 0
v 844 3
v 845 0
v 846 1
v 847 0
v 848 1
v 849 2
v 850 0
v 851 1
v 852 0
v 853 2
v 854 1
v 855 2
v 856 1
v 857 0
v 858 1
v 859 0
v 860 2
v 861 1
v 862 0
v 863 1
v 864 0
v 865 2
v 866 0
v 867 2
v 868 0
v 869 1
v 870 0
v 871 2
v 872 1
v 873 3
v 874 2
v 875 0
v 876 3
v 877 0
v 878 2
v 879 0
v 880 3
v 881 0
v 882 2
v 883 3
v 884 1
v 885 2
v 886 3
v 887 2
v 888 0
v 889 3
v 890 1
v 891 0
v 892 3
v 893 0
v 894 3
v 895 1
v 896 0
v 897 2
v 898 3
v 899 2
v 900 3
v 901 1
v 902 0
v 903 2
v 904 0
v 905 2
v 906 0
v 907 2
v 908 1
v 909 3
v 910 1
v 911 1
v 912 3
v 913 1
v 914 3
v 915 0
v 916 1
v 917 3
v 918 0
v 919 2
v 920 1
v 921 0
v 922 1
v 923 3
v 924 1
v 925 2
v 926 3
v 927 1
v 928 3
v 929 1
v 930 0
v 931 2
v 932 0
v 933 2
v 934 0
v 935 1
v 936 0
v 937 2
v 938 0
v 939 1
v 940 0
v 941 1
v 942 0
v 943 3
v 944 2
v 945 0
v 946 3
v 947 1
v 948 2
v 949 0
v 950 1
v 951 2
v 952 1
v 953 2
v 954 0
v 955 2
v 956 1
v 957 0
v 958 1
v 959 0
v 960 1
v 961 0
v 962 3
v 963 0
v 964 2
v 965 1
v 966 0
v 967 2
v 968 0
v 969 3
v 970 2
v 971 1
v 972 0
v 973 2
v 974 0
v 975 2
v 976 0
v 977 3
v 978 0
v 979 1
v 980 3
v 981 1
v 982 0
v 983 3
v 984 1
v 985 3
v 986 1
v 987 0
v 988 1
v 989 3
v 990 0
v 991 2
v 992 1
v 993 0
v 994 1
v 995 0
v 996 1
v 997 0
v 998 1
v 999 3
v 1000 0
v 1001 3
v 1002 1
v 1003 2
v 1004 1
v 1005 0
v 1006 3
v 1007 1
v 1008 0
v 1009 2
v 1010 1
v 1011 2
v 1012 1
v 1013 2
v 1014 0
v 1015 1
v 1016 0
v 1017 1
v 1018 2
v 1019 0
v 1020 2
v 1021 0
v 1022 1
v 1023 0
v 1024 1
v 1025 3
v 1026 0
v 1027 3
v 1028 1
v 1029 0
v 1030 1
v 1031 2
v 1032 1
v 1033 0
v 1034 2
v 1035 3
v 1036 1
v 1037 0
v 1038 1
v 1039 0
v 1040 2
v 1041 1
v 1042 0
v 1043 3
v 1044 0
v 1045 3
v 1046 1
v 1047 0
v 1048 1
v 1049 2
v 1050 3
v 1051 3
v 1052 2
v 1053 1
v 1054 2
v 1055 0
v 1056 1
v 1057 0
v 1058 1
v 1059 3
v 1060 0
v 1061 2
v 1062 0
v 1063 3
v 1064 1
v 1065 2
v 1066 1
v 1067 3
v 1068 2
v 1069 1
v 1070 2
v 1071 0
v 1072 2
v 1073 3
v 1074 1
v 1075 0
v 1076 3
v 1077 1
v 1078 2
v 1079 1
v 1080 0
v 1081 3
v 1082 1
v 1083 0
v 1084 1
v 1085 0
v 1086 1
v 1087 3
v 1088 2
v 1089 0
v 1090 2
v 1091 3
v 1092 2
v 1093 3
v 1094 2
v 1095 1
v 1096 0
v 1097 3
v 1098 1
v 1099 0
v 1100 1
v 1101 0
v 1102 1
v 1103 3
v 1104 2
v 1105 3
v 1106 2
v 1107 0
v 1108 1
v 1109 0
v 1110 1
v 1111 2
v 1112 3
v 1113 0
v 1114 3
v 1115 1
v 1116 2
v 1117 0
v 1118 1
v 1119 2
v 1120 3
v 1121 2
v 1122 0
v 1123 1
v 1124 3
v 1125 1
v 1126 0
v 1127 1
v 1128 2
v 1129 3
v 1130 2
v 1131 3
v 1132 1
v 1133 0
v 1134 3
v 1135 0
v 1136 1
v 1137 0
v 1138 1
v 1139 0
v 1140 1
v 1141 0
v 1142 2
v 1143 3
v 1144 1
v 1145 3
v 1146 0
v 1147 2
v 1148 1
v 1149 0
v 1150 2
v 1151 0
v 1152 3
v 1153 0
v 1154 3
v 1155 0
v 1156 1
v 1157 2
v 1158 0
v 1159 1
v 1160 0
v 1161 3
v 1162 2
v 1163 1
v 1164 2
v 1165 1
v 1166 0
v 1167 2
v 1168 1
v 1169 2
v 1170 1
v 1171 0
v 1172 1
v 1173 2
v 1174 1
v 1175 0
v 1176 1
v 1177 3
v 1178 2
v 1179 0
v 1180 1
v 1181 3
v 1182 1
v 1183 0
v 1184 3
v 1185 1
v 1186 2
v 1187 1
v 1188 3
v 1189 1
v 1190 3
v 1191 2
v 1192 0
v 1193 3
v 1194 0
v 1195 2
v 1196 0
v 1197 1
v 1198 0
v 1199 1
v 1200 3
v 1201 2
v 1202 3
v 1203 2
v 1204 3
v 1205 0
v 1206 3
v 1207 0
v 1208 1
v 1209 0
v 1210 2
v 1211 3
v 1212 0
v 1213 3
v 1214 1
v 1215 2
v 1216 0
v 1217 3
v 1218 1
v 1219 0
v 1220 3
v 1221 0
v 1222 2
v 1223 1
v 1224 0
v 1225 1
